c ! encoding i-pc 250
p cnf 978 2790
-251 0
251 -252 0
251 -253 0
251 -254 0
251 -255 0
251 -256 0
251 -257 0
251 -258 0
251 -259 0
260 0
261 -262 0
262 -263 0
59 -263 0
-110 -264 0
-59 -264 0
263 264 -265 0
9 -266 0
-19 -266 0
35 -266 0
42 -266 0
43 -266 0
46 -266 0
-75 -266 0
99 -266 0
-108 -266 0
-115 -266 0
-126 -266 0
130 -266 0
131 -266 0
-150 -266 0
-154 -266 0
164 -266 0
166 -266 0
171 -266 0
179 -266 0
186 -266 0
187 -266 0
-206 -266 0
220 -266 0
-224 -266 0
-229 -266 0
246 -266 0
-249 -266 0
267 -279 0
268 -279 0
269 -279 0
270 -279 0
271 -279 0
272 -279 0
273 -279 0
274 -279 0
275 -279 0
276 -279 0
277 -279 0
278 -279 0
265 -280 0
266 -280 0
279 -280 0
280 -281 0
147 -281 0
268 -282 0
267 -282 0
35 -283 0
282 -283 0
283 -284 0
9 -284 0
267 -285 0
268 -285 0
285 -286 0
35 -286 0
-91 -287 0
-250 -287 0
287 -288 0
-35 -288 0
286 288 -289 0
289 -290 0
-9 -290 0
284 290 -291 0
291 -292 0
48 -292 0
35 -293 0
268 -293 0
293 -294 0
9 -294 0
268 -295 0
295 -296 0
35 -296 0
-91 -297 0
-35 -297 0
296 297 -298 0
298 -299 0
-9 -299 0
294 299 -300 0
300 -301 0
267 -301 0
301 -302 0
-48 -302 0
292 302 -303 0
240 -304 0
126 -304 0
270 -305 0
305 -306 0
-126 -306 0
304 306 -307 0
275 -308 0
274 -308 0
308 -309 0
220 -309 0
-1 -310 0
160 -310 0
310 -311 0
-220 -311 0
309 311 -312 0
303 -313 0
307 -313 0
312 -313 0
313 -314 0
249 -314 0
9 -315 0
35 -315 0
-126 -315 0
220 -315 0
268 -316 0
273 -316 0
267 -316 0
270 -316 0
275 -316 0
274 -316 0
315 -317 0
316 -317 0
317 -318 0
-249 -318 0
314 318 -319 0
246 -320 0
278 -320 0
320 -321 0
130 -321 0
322 -323 0
323 -324 0
132 -324 0
246 -325 0
-132 -325 0
324 325 -326 0
326 -327 0
-130 -327 0
321 327 -328 0
-19 -329 0
-75 -329 0
99 -329 0
-108 -329 0
-115 -329 0
-150 -329 0
164 -329 0
166 -329 0
171 -329 0
179 -329 0
186 -329 0
187 -329 0
-224 -329 0
-229 -329 0
269 -331 0
271 -331 0
272 -331 0
330 -331 0
276 -331 0
319 -332 0
328 -332 0
265 -332 0
329 -332 0
331 -332 0
332 -333 0
42 -333 0
179 -334 0
-250 -334 0
334 -335 0
48 -335 0
267 -337 0
336 -337 0
337 -338 0
-48 -338 0
335 338 -339 0
246 -340 0
130 -340 0
322 -341 0
341 -342 0
-130 -342 0
340 342 -343 0
339 -344 0
343 -344 0
344 -345 0
132 -345 0
-250 -346 0
48 -346 0
267 -347 0
347 -348 0
-48 -348 0
346 348 -349 0
179 -350 0
246 -350 0
349 -352 0
350 -352 0
351 -352 0
352 -353 0
-132 -353 0
345 353 -354 0
-108 -355 0
312 -356 0
355 -356 0
356 -357 0
251 -359 0
359 -360 0
357 360 -361 0
-75 -362 0
-224 -362 0
354 -363 0
361 -363 0
265 -363 0
362 -363 0
276 -363 0
363 -364 0
251 -365 0
364 365 -366 0
367 -368 0
269 -368 0
368 -369 0
84 -369 0
-166 -370 0
238 -370 0
370 -371 0
-84 -371 0
369 371 -372 0
-8 -373 0
-9 -373 0
19 -373 0
-35 -373 0
45 -373 0
-46 -373 0
-91 -373 0
-99 -373 0
115 -373 0
150 -373 0
-164 -373 0
-171 -373 0
-186 -373 0
-187 -373 0
229 -373 0
249 -373 0
366 -374 0
372 -374 0
307 -374 0
373 -374 0
374 -375 0
-42 -375 0
333 375 -376 0
43 -377 0
-131 -377 0
133 -377 0
-154 -377 0
-206 -377 0
376 -378 0
377 -378 0
378 -379 0
-147 -379 0
281 379 -380 0
-2 -381 0
-11 -381 0
22 -381 0
30 -381 0
-36 -381 0
37 -381 0
-51 -381 0
-52 -381 0
55 -381 0
57 -381 0
58 -381 0
70 -381 0
-71 -381 0
72 -381 0
77 -381 0
-87 -381 0
100 -381 0
101 -381 0
-105 -381 0
106 -381 0
-112 -381 0
119 -381 0
121 -381 0
125 -381 0
128 -381 0
-134 -381 0
-144 -381 0
148 -381 0
176 -381 0
-189 -381 0
-191 -381 0
192 -381 0
200 -381 0
213 -381 0
216 -381 0
-225 -381 0
231 -381 0
-234 -381 0
382 -387 0
383 -387 0
384 -387 0
385 -387 0
386 -387 0
380 -388 0
381 -388 0
387 -388 0
388 -389 0
259 389 -390 0
-44 -391 0
88 -391 0
-113 -391 0
-139 -391 0
390 -392 0
391 -392 0
392 -393 0
-17 -393 0
258 393 -394 0
168 -395 0
394 -396 0
395 -396 0
396 -397 0
161 -397 0
251 -398 0
9 -399 0
-19 -399 0
35 -399 0
42 -399 0
46 -399 0
99 -399 0
-115 -399 0
-126 -399 0
130 -399 0
131 -399 0
-150 -399 0
164 -399 0
166 -399 0
171 -399 0
179 -399 0
186 -399 0
187 -399 0
220 -399 0
-229 -399 0
246 -399 0
-249 -399 0
267 -400 0
269 -400 0
268 -400 0
270 -400 0
272 -400 0
273 -400 0
275 -400 0
274 -400 0
277 -400 0
278 -400 0
399 -401 0
400 -401 0
401 -402 0
147 -402 0
-19 -403 0
42 -403 0
99 -403 0
-115 -403 0
-150 -403 0
166 -403 0
171 -403 0
179 -403 0
186 -403 0
187 -403 0
-229 -403 0
269 -404 0
272 -404 0
330 -404 0
319 -405 0
328 -405 0
403 -405 0
404 -405 0
405 -406 0
164 -406 0
-9 -407 0
19 -407 0
-35 -407 0
-42 -407 0
45 -407 0
-46 -407 0
-91 -407 0
-99 -407 0
115 -407 0
150 -407 0
-171 -407 0
-186 -407 0
-187 -407 0
229 -407 0
249 -407 0
312 -408 0
354 -408 0
372 -408 0
307 -408 0
407 -408 0
408 -409 0
-164 -409 0
406 409 -410 0
-131 -411 0
133 -411 0
410 -412 0
411 -412 0
412 -413 0
-147 -413 0
402 413 -414 0
385 -415 0
415 -416 0
110 -416 0
-140 -417 0
-110 -417 0
416 417 -418 0
418 -419 0
59 -419 0
-110 -420 0
-140 -420 0
420 -421 0
-59 -421 0
419 421 -422 0
-2 -423 0
-11 -423 0
22 -423 0
30 -423 0
-36 -423 0
37 -423 0
43 -423 0
-44 -423 0
-51 -423 0
-52 -423 0
55 -423 0
57 -423 0
58 -423 0
70 -423 0
-71 -423 0
72 -423 0
-75 -423 0
77 -423 0
-87 -423 0
88 -423 0
100 -423 0
101 -423 0
-105 -423 0
106 -423 0
-108 -423 0
-112 -423 0
-113 -423 0
119 -423 0
121 -423 0
125 -423 0
128 -423 0
-134 -423 0
-139 -423 0
148 -423 0
-154 -423 0
176 -423 0
-189 -423 0
-191 -423 0
192 -423 0
200 -423 0
-206 -423 0
213 -423 0
216 -423 0
-224 -423 0
-225 -423 0
231 -423 0
-234 -423 0
382 -424 0
383 -424 0
384 -424 0
386 -424 0
276 -424 0
414 -425 0
422 -425 0
423 -425 0
424 -425 0
425 -426 0
-17 -426 0
398 426 -427 0
-8 -428 0
-144 -428 0
168 -428 0
427 -429 0
428 -429 0
429 -430 0
-161 -430 0
397 430 -431 0
431 -432 0
251 -433 0
432 433 -434 0
54 -435 0
434 -436 0
435 -436 0
436 -437 0
251 -438 0
437 438 -439 0
439 -440 0
251 -441 0
440 441 -442 0
442 -443 0
23 -443 0
443 -444 0
78 -444 0
251 -445 0
444 445 -446 0
446 -448 0
447 -448 0
448 -449 0
257 449 -450 0
450 -452 0
451 -452 0
452 -453 0
251 -454 0
453 454 -455 0
455 -456 0
251 -457 0
456 457 -458 0
458 -459 0
459 -460 0
182 -460 0
251 -461 0
460 461 -462 0
-31 -463 0
89 -463 0
462 -464 0
463 -464 0
464 -465 0
256 465 -466 0
466 -467 0
467 -468 0
255 468 -469 0
469 -470 0
251 -471 0
470 471 -472 0
472 -473 0
251 -474 0
473 474 -475 0
475 -477 0
476 -477 0
477 -478 0
254 478 -479 0
479 -480 0
253 480 -481 0
481 -482 0
482 -483 0
174 -483 0
251 -484 0
251 -485 0
251 -486 0
251 -487 0
251 -488 0
251 -489 0
37 -490 0
213 -490 0
491 -492 0
492 -493 0
-213 -493 0
490 493 -494 0
9 -495 0
-19 -495 0
35 -495 0
42 -495 0
46 -495 0
99 -495 0
-115 -495 0
-126 -495 0
130 -495 0
131 -495 0
-150 -495 0
164 -495 0
166 -495 0
171 -495 0
179 -495 0
186 -495 0
187 -495 0
220 -495 0
-229 -495 0
246 -495 0
-249 -495 0
267 -496 0
269 -496 0
268 -496 0
384 -496 0
270 -496 0
272 -496 0
273 -496 0
275 -496 0
274 -496 0
277 -496 0
278 -496 0
494 -497 0
495 -497 0
496 -497 0
497 -498 0
147 -498 0
-19 -499 0
42 -499 0
99 -499 0
-115 -499 0
-150 -499 0
166 -499 0
171 -499 0
186 -499 0
187 -499 0
-229 -499 0
269 -500 0
384 -500 0
330 -500 0
272 -500 0
319 -501 0
499 -501 0
500 -501 0
501 -502 0
164 -502 0
-9 -503 0
19 -503 0
-35 -503 0
-42 -503 0
45 -503 0
-46 -503 0
-91 -503 0
-99 -503 0
115 -503 0
150 -503 0
-171 -503 0
-186 -503 0
-187 -503 0
229 -503 0
249 -503 0
312 -504 0
349 -504 0
372 -504 0
307 -504 0
503 -504 0
384 -504 0
504 -505 0
-164 -505 0
502 505 -506 0
37 -507 0
507 -508 0
351 -508 0
508 -509 0
213 -509 0
130 -510 0
511 -512 0
512 -513 0
-130 -513 0
510 513 -514 0
514 -515 0
491 -515 0
515 -516 0
-213 -516 0
509 516 -517 0
-131 -518 0
-132 -518 0
133 -518 0
179 -518 0
246 -518 0
506 -519 0
517 -519 0
518 -519 0
519 -520 0
-147 -520 0
498 520 -521 0
-8 -522 0
22 -522 0
30 -522 0
-31 -522 0
-36 -522 0
43 -522 0
-44 -522 0
-51 -522 0
-52 -522 0
55 -522 0
58 -522 0
70 -522 0
72 -522 0
-75 -522 0
77 -522 0
-87 -522 0
88 -522 0
89 -522 0
100 -522 0
101 -522 0
-105 -522 0
106 -522 0
-108 -522 0
-112 -522 0
-113 -522 0
119 -522 0
121 -522 0
125 -522 0
128 -522 0
-139 -522 0
148 -522 0
-154 -522 0
-191 -522 0
192 -522 0
200 -522 0
-206 -522 0
-224 -522 0
-225 -522 0
231 -522 0
-234 -522 0
382 -523 0
383 -523 0
386 -523 0
276 -523 0
521 -524 0
422 -524 0
522 -524 0
523 -524 0
524 -525 0
-17 -525 0
489 525 -526 0
526 -527 0
527 -528 0
251 -529 0
528 529 -530 0
-71 -531 0
-144 -531 0
530 -532 0
531 -532 0
532 -533 0
251 -534 0
533 534 -535 0
23 -536 0
535 -537 0
536 -537 0
537 -538 0
78 -538 0
251 -539 0
538 539 -540 0
-11 -541 0
54 -541 0
57 -541 0
-134 -541 0
168 -541 0
176 -541 0
-189 -541 0
216 -541 0
540 -542 0
541 -542 0
542 -543 0
488 543 -544 0
544 -545 0
251 -546 0
545 546 -547 0
547 -548 0
182 -548 0
251 -549 0
548 549 -550 0
550 -552 0
551 -552 0
552 -553 0
487 553 -554 0
-2 -555 0
554 -556 0
555 -556 0
556 -557 0
486 557 -558 0
558 -559 0
251 -560 0
559 560 -561 0
561 -562 0
251 -563 0
562 563 -564 0
564 -565 0
251 -566 0
565 566 -567 0
567 -569 0
568 -569 0
569 -570 0
485 570 -571 0
571 -572 0
572 -573 0
484 573 -574 0
574 -575 0
-174 -575 0
576 -577 0
63 -578 0
251 -579 0
251 -580 0
251 -581 0
251 -582 0
251 -583 0
251 -584 0
251 -585 0
30 -586 0
179 -586 0
586 -587 0
46 -587 0
588 -589 0
336 -589 0
589 -590 0
-46 -590 0
587 590 -591 0
88 -592 0
-105 -592 0
592 -594 0
593 -594 0
594 -595 0
58 -595 0
-89 -598 0
596 -598 0
597 -598 0
598 -599 0
-58 -599 0
595 599 -600 0
600 -601 0
100 -601 0
-58 -602 0
-88 -602 0
-89 -602 0
602 -603 0
596 -603 0
603 -604 0
-100 -604 0
601 604 -605 0
591 -606 0
605 -606 0
206 -606 0
606 -607 0
31 -607 0
591 -608 0
206 -608 0
-30 -609 0
-46 -609 0
609 -610 0
336 -610 0
610 -611 0
-206 -611 0
608 611 -612 0
58 -613 0
88 -613 0
89 -613 0
100 -613 0
-105 -613 0
612 -614 0
613 -614 0
614 -615 0
-31 -615 0
607 615 -616 0
-28 -617 0
50 -617 0
617 -618 0
139 -618 0
382 -619 0
619 -620 0
50 -620 0
28 -621 0
-50 -621 0
620 621 -622 0
622 -623 0
-139 -623 0
618 623 -624 0
624 -625 0
71 -625 0
622 -627 0
626 -627 0
627 -628 0
-71 -628 0
625 628 -629 0
-57 -630 0
134 -630 0
629 -631 0
630 -631 0
631 -632 0
44 -632 0
57 -633 0
-134 -633 0
-139 -633 0
622 -635 0
633 -635 0
634 -635 0
635 -636 0
-44 -636 0
632 636 -637 0
-43 -638 0
-52 -638 0
616 -639 0
637 -639 0
638 -639 0
639 -640 0
154 -640 0
-52 -641 0
206 -641 0
591 -643 0
605 -643 0
641 -643 0
642 -643 0
643 -644 0
31 -644 0
43 -645 0
-206 -645 0
645 -646 0
52 -646 0
642 -647 0
647 -648 0
206 -648 0
43 -649 0
-206 -649 0
648 649 -650 0
650 -651 0
-52 -651 0
646 651 -652 0
179 -653 0
46 -653 0
336 -654 0
654 -655 0
-46 -655 0
653 655 -656 0
652 -657 0
656 -657 0
657 -658 0
30 -658 0
-206 -659 0
52 -659 0
660 -661 0
661 -662 0
-52 -662 0
659 662 -663 0
663 -664 0
-46 -664 0
336 -664 0
664 -665 0
642 -665 0
665 -666 0
-30 -666 0
658 666 -667 0
667 -668 0
613 -668 0
668 -669 0
-31 -669 0
644 669 -670 0
617 -671 0
71 -671 0
622 -672 0
-71 -672 0
671 672 -673 0
44 -674 0
-57 -674 0
134 -674 0
139 -674 0
670 -675 0
673 -675 0
674 -675 0
675 -676 0
-154 -676 0
640 676 -677 0
275 -678 0
678 -679 0
176 -679 0
-1 -681 0
680 -681 0
681 -682 0
-176 -682 0
679 682 -683 0
-9 -684 0
19 -684 0
-23 -684 0
36 -684 0
45 -684 0
48 -684 0
51 -684 0
-70 -684 0
-72 -684 0
-77 -684 0
-101 -684 0
108 -684 0
-121 -684 0
-126 -684 0
130 -684 0
131 -684 0
132 -684 0
144 -684 0
-145 -684 0
-148 -684 0
150 -684 0
160 -684 0
-164 -684 0
-168 -684 0
169 -684 0
-171 -684 0
-187 -684 0
-192 -684 0
-200 -684 0
220 -684 0
224 -684 0
225 -684 0
-231 -684 0
-249 -684 0
685 -686 0
270 -686 0
677 -687 0
683 -687 0
684 -687 0
686 -687 0
687 -688 0
11 -688 0
251 -689 0
-28 -690 0
139 -690 0
382 -691 0
691 -692 0
-139 -692 0
690 692 -693 0
693 -694 0
71 -694 0
382 -695 0
626 -695 0
695 -696 0
-71 -696 0
694 696 -697 0
44 -698 0
-57 -698 0
697 -699 0
698 -699 0
386 -699 0
699 -700 0
134 -700 0
-44 -701 0
57 -701 0
-139 -701 0
382 -702 0
634 -702 0
386 -702 0
701 -703 0
702 -703 0
703 -704 0
-134 -704 0
700 704 -705 0
593 -706 0
706 -707 0
31 -707 0
89 -708 0
-31 -708 0
707 708 -709 0
88 -710 0
100 -710 0
-105 -710 0
709 -711 0
710 -711 0
711 -712 0
58 -712 0
100 -713 0
88 -713 0
714 -715 0
715 -716 0
-88 -716 0
713 716 -717 0
31 -718 0
-89 -718 0
717 -719 0
718 -719 0
719 -720 0
596 -720 0
720 -721 0
-58 -721 0
712 721 -722 0
-43 -723 0
-52 -723 0
206 -723 0
705 -724 0
722 -724 0
723 -724 0
724 -725 0
154 -725 0
-31 -726 0
43 -726 0
-206 -726 0
726 -727 0
52 -727 0
206 -728 0
642 -728 0
728 -729 0
31 -729 0
650 -730 0
-31 -730 0
729 730 -731 0
731 -732 0
-52 -732 0
727 732 -733 0
58 -734 0
88 -734 0
100 -734 0
-105 -734 0
733 -735 0
734 -735 0
735 -736 0
89 -736 0
710 -737 0
58 -737 0
717 -738 0
596 -738 0
738 -739 0
-58 -739 0
737 739 -740 0
31 -741 0
-52 -741 0
206 -741 0
740 -742 0
741 -742 0
642 -742 0
742 -743 0
-89 -743 0
736 743 -744 0
-28 -745 0
71 -745 0
382 -746 0
746 -747 0
-71 -747 0
745 747 -748 0
744 -749 0
748 -749 0
674 -749 0
386 -749 0
749 -750 0
-154 -750 0
725 750 -751 0
751 -752 0
586 -752 0
752 -753 0
46 -753 0
605 -754 0
206 -754 0
588 -754 0
754 -755 0
31 -755 0
588 -756 0
756 -757 0
206 -757 0
-30 -758 0
-206 -758 0
757 758 -759 0
759 -760 0
613 -760 0
760 -761 0
-31 -761 0
755 761 -762 0
705 -763 0
762 -763 0
638 -763 0
763 -764 0
154 -764 0
588 -765 0
642 -765 0
605 -766 0
641 -766 0
765 -766 0
766 -767 0
31 -767 0
588 -768 0
768 -769 0
43 -769 0
-30 -770 0
-43 -770 0
769 770 -771 0
771 -772 0
-206 -772 0
772 -773 0
52 -773 0
588 -774 0
642 -774 0
774 -775 0
206 -775 0
771 -776 0
-206 -776 0
775 776 -777 0
777 -778 0
-52 -778 0
773 778 -779 0
779 -780 0
613 -780 0
780 -781 0
-31 -781 0
767 781 -782 0
782 -783 0
748 -783 0
674 -783 0
386 -783 0
783 -784 0
-154 -784 0
764 784 -785 0
785 -786 0
336 -786 0
786 -787 0
-46 -787 0
753 787 -788 0
-9 -789 0
19 -789 0
-23 -789 0
36 -789 0
45 -789 0
48 -789 0
51 -789 0
-70 -789 0
-72 -789 0
-77 -789 0
-101 -789 0
108 -789 0
-121 -789 0
-126 -789 0
130 -789 0
131 -789 0
132 -789 0
144 -789 0
-145 -789 0
150 -789 0
160 -789 0
-164 -789 0
-168 -789 0
169 -789 0
-171 -789 0
-187 -789 0
-192 -789 0
-200 -789 0
220 -789 0
224 -789 0
225 -789 0
-231 -789 0
-249 -789 0
685 -791 0
790 -791 0
270 -791 0
788 -792 0
683 -792 0
789 -792 0
791 -792 0
792 -793 0
689 793 -794 0
794 -795 0
795 -796 0
-11 -796 0
688 796 -797 0
2 -798 0
-8 -798 0
17 -798 0
-22 -798 0
35 -798 0
-37 -798 0
-42 -798 0
54 -798 0
-55 -798 0
59 -798 0
75 -798 0
-78 -798 0
87 -798 0
91 -798 0
99 -798 0
-106 -798 0
-110 -798 0
112 -798 0
113 -798 0
-115 -798 0
-119 -798 0
-125 -798 0
-128 -798 0
133 -798 0
-140 -798 0
147 -798 0
166 -798 0
-186 -798 0
189 -798 0
191 -798 0
-213 -798 0
-216 -798 0
246 -798 0
250 -798 0
269 -799 0
383 -799 0
797 -800 0
798 -800 0
799 -800 0
800 -801 0
585 801 -802 0
802 -804 0
803 -804 0
804 -805 0
182 -805 0
251 -806 0
251 -808 0
808 -809 0
591 -810 0
206 -810 0
810 -811 0
31 -811 0
612 -812 0
-31 -812 0
811 812 -813 0
622 -814 0
-148 -814 0
814 -815 0
11 -815 0
790 -816 0
382 -816 0
386 -816 0
816 -817 0
-11 -817 0
815 817 -818 0
-43 -819 0
-44 -819 0
-52 -819 0
57 -819 0
58 -819 0
88 -819 0
100 -819 0
-105 -819 0
-134 -819 0
-139 -819 0
154 -819 0
813 -820 0
818 -820 0
819 -820 0
634 -820 0
820 -821 0
89 -821 0
673 -822 0
-148 -822 0
822 -823 0
11 -823 0
748 -824 0
790 -824 0
386 -824 0
824 -825 0
-11 -825 0
823 825 -826 0
-154 -827 0
43 -827 0
828 -829 0
829 -830 0
-43 -830 0
827 830 -831 0
44 -832 0
-57 -832 0
134 -832 0
826 -833 0
831 -833 0
832 -833 0
833 -834 0
139 -834 0
251 -835 0
-57 -836 0
134 -836 0
836 -837 0
44 -837 0
57 -838 0
-134 -838 0
838 -839 0
-44 -839 0
837 839 -840 0
818 -842 0
840 -842 0
841 -842 0
842 -843 0
835 843 -844 0
-43 -845 0
154 -845 0
844 -846 0
845 -846 0
846 -847 0
634 -847 0
847 -848 0
-139 -848 0
834 848 -849 0
591 -850 0
849 -850 0
740 -850 0
741 -850 0
850 -851 0
-89 -851 0
821 851 -852 0
2 -853 0
-9 -853 0
19 -853 0
-23 -853 0
36 -853 0
45 -853 0
-70 -853 0
-72 -853 0
-101 -853 0
108 -853 0
-115 -853 0
-121 -853 0
-126 -853 0
130 -853 0
132 -853 0
144 -853 0
-145 -853 0
147 -853 0
150 -853 0
-164 -853 0
-168 -853 0
169 -853 0
-171 -853 0
-187 -853 0
189 -853 0
-192 -853 0
-216 -853 0
224 -853 0
225 -853 0
-231 -853 0
246 -853 0
-249 -853 0
270 -855 0
854 -855 0
852 -856 0
853 -856 0
855 -856 0
856 -857 0
685 -857 0
857 -858 0
809 858 -859 0
-22 -860 0
-119 -860 0
250 -860 0
859 -861 0
860 -861 0
269 -861 0
861 -862 0
251 -863 0
862 863 -864 0
48 -865 0
51 -865 0
-77 -865 0
160 -865 0
191 -865 0
-200 -865 0
864 -866 0
865 -866 0
866 -867 0
251 -868 0
867 868 -869 0
1 -870 0
-8 -870 0
17 -870 0
35 -870 0
-37 -870 0
-42 -870 0
-55 -870 0
59 -870 0
75 -870 0
-78 -870 0
87 -870 0
91 -870 0
99 -870 0
-106 -870 0
-110 -870 0
112 -870 0
113 -870 0
-125 -870 0
-128 -870 0
133 -870 0
-140 -870 0
166 -870 0
-186 -870 0
-213 -870 0
869 -871 0
870 -871 0
383 -871 0
871 -872 0
806 872 -873 0
131 -874 0
873 -875 0
874 -875 0
875 -876 0
-182 -876 0
805 876 -877 0
877 -878 0
185 -878 0
251 -879 0
-43 -880 0
-139 -880 0
154 -880 0
880 -881 0
71 -881 0
139 -882 0
-154 -882 0
882 -883 0
43 -883 0
626 -884 0
884 -885 0
154 -885 0
139 -886 0
-154 -886 0
885 886 -887 0
887 -888 0
-43 -888 0
883 888 -889 0
889 -890 0
-71 -890 0
881 890 -891 0
-148 -892 0
11 -892 0
790 -893 0
893 -894 0
-11 -894 0
892 894 -895 0
891 -896 0
895 -896 0
896 -897 0
386 -897 0
897 -898 0
28 -898 0
50 -899 0
-148 -899 0
899 -900 0
11 -900 0
790 -901 0
386 -901 0
901 -902 0
-11 -902 0
900 902 -903 0
889 -904 0
903 -904 0
904 -905 0
634 -905 0
905 -906 0
-28 -906 0
898 906 -907 0
591 -908 0
722 -908 0
907 -908 0
-52 -908 0
908 -909 0
206 -909 0
629 -910 0
-148 -910 0
910 -911 0
11 -911 0
697 -912 0
790 -912 0
386 -912 0
912 -913 0
-11 -913 0
911 913 -914 0
-30 -915 0
-43 -915 0
-46 -915 0
-52 -915 0
914 -916 0
915 -916 0
336 -916 0
916 -917 0
154 -917 0
591 -918 0
43 -918 0
609 -919 0
336 -919 0
919 -920 0
-43 -920 0
918 920 -921 0
921 -922 0
826 -922 0
139 -922 0
922 -924 0
923 -924 0
924 -925 0
-154 -925 0
917 925 -926 0
-31 -927 0
58 -927 0
88 -927 0
89 -927 0
100 -927 0
-105 -927 0
926 -928 0
927 -928 0
928 -929 0
-206 -929 0
909 929 -930 0
2 -931 0
-8 -931 0
-9 -931 0
17 -931 0
19 -931 0
-22 -931 0
-23 -931 0
35 -931 0
36 -931 0
-37 -931 0
-42 -931 0
44 -931 0
45 -931 0
48 -931 0
51 -931 0
54 -931 0
-55 -931 0
-57 -931 0
59 -931 0
-70 -931 0
-72 -931 0
75 -931 0
-77 -931 0
-78 -931 0
87 -931 0
91 -931 0
99 -931 0
-101 -931 0
-106 -931 0
108 -931 0
-110 -931 0
112 -931 0
113 -931 0
-115 -931 0
-119 -931 0
-121 -931 0
-125 -931 0
-126 -931 0
-128 -931 0
130 -931 0
131 -931 0
132 -931 0
133 -931 0
134 -931 0
-140 -931 0
144 -931 0
-145 -931 0
147 -931 0
150 -931 0
160 -931 0
-164 -931 0
166 -931 0
-168 -931 0
169 -931 0
-171 -931 0
-186 -931 0
-187 -931 0
189 -931 0
191 -931 0
-192 -931 0
-200 -931 0
-213 -931 0
-216 -931 0
220 -931 0
224 -931 0
225 -931 0
-231 -931 0
246 -931 0
-249 -931 0
250 -931 0
269 -932 0
685 -932 0
270 -932 0
383 -932 0
683 -933 0
930 -933 0
931 -933 0
932 -933 0
933 -934 0
879 934 -935 0
935 -936 0
803 -936 0
936 -937 0
182 -937 0
251 -938 0
1 -939 0
2 -939 0
-8 -939 0
-9 -939 0
17 -939 0
19 -939 0
-22 -939 0
-23 -939 0
31 -939 0
35 -939 0
36 -939 0
-37 -939 0
-42 -939 0
44 -939 0
45 -939 0
48 -939 0
51 -939 0
-52 -939 0
-55 -939 0
-57 -939 0
59 -939 0
-70 -939 0
-72 -939 0
75 -939 0
-77 -939 0
-78 -939 0
87 -939 0
-89 -939 0
91 -939 0
99 -939 0
-101 -939 0
-106 -939 0
108 -939 0
-110 -939 0
112 -939 0
113 -939 0
-115 -939 0
-119 -939 0
-121 -939 0
-125 -939 0
-126 -939 0
-128 -939 0
130 -939 0
132 -939 0
133 -939 0
134 -939 0
-140 -939 0
144 -939 0
-145 -939 0
147 -939 0
150 -939 0
160 -939 0
-164 -939 0
166 -939 0
-168 -939 0
169 -939 0
-171 -939 0
-186 -939 0
-187 -939 0
189 -939 0
191 -939 0
-192 -939 0
-200 -939 0
206 -939 0
-213 -939 0
-216 -939 0
224 -939 0
225 -939 0
-231 -939 0
246 -939 0
-249 -939 0
250 -939 0
269 -940 0
685 -940 0
270 -940 0
854 -940 0
383 -940 0
591 -941 0
907 -941 0
740 -941 0
939 -941 0
940 -941 0
941 -942 0
938 942 -943 0
943 -944 0
874 -944 0
944 -945 0
-182 -945 0
937 945 -946 0
946 -947 0
-185 -947 0
878 947 -948 0
-211 -949 0
948 -950 0
949 -950 0
950 -951 0
584 951 -952 0
229 -953 0
952 -954 0
953 -954 0
954 -955 0
583 955 -956 0
956 -957 0
251 -958 0
957 958 -959 0
959 -960 0
-127 -960 0
582 960 -961 0
961 -962 0
251 -972 0
-63 -975 0
976 -977 0
-3 0
4 0
5 0
-6 0
7 0
-12 0
13 0
-14 0
15 0
-16 0
18 0
-21 0
24 0
25 0
-26 0
27 0
-32 0
-33 0
-34 0
-38 0
39 0
-40 0
47 0
-49 0
53 0
60 0
-61 0
-62 0
-65 0
66 0
67 0
-68 0
-69 0
-73 0
-74 0
76 0
79 0
80 0
81 0
82 0
83 0
85 0
-86 0
-90 0
92 0
-94 0
95 0
96 0
97 0
98 0
-102 0
103 0
-104 0
107 0
109 0
-111 0
-114 0
-120 0
-122 0
123 0
124 0
129 0
135 0
-136 0
137 0
142 0
146 0
149 0
-151 0
-153 0
155 0
156 0
-157 0
158 0
159 0
-162 0
163 0
-165 0
-167 0
172 0
175 0
-177 0
178 0
-180 0
-181 0
-183 0
-184 0
-190 0
-193 0
194 0
-196 0
-197 0
-199 0
201 0
-203 0
-204 0
-205 0
207 0
-208 0
209 0
-210 0
-212 0
-217 0
218 0
-219 0
221 0
-222 0
223 0
226 0
-227 0
-228 0
230 0
-232 0
233 0
235 0
237 0
-239 0
-241 0
244 0
245 0
247 0
248 0
-974 975 0
-971 973 0
-967 968 0
-964 965 0
-956 957 0
-955 956 0
-953 954 0
-952 954 0
-951 952 0
-949 950 0
-947 948 0
-946 947 0
-945 946 0
-940 941 0
-937 946 0
-936 937 0
-934 935 0
-928 929 0
-926 928 0
-924 925 0
-923 924 0
-920 921 0
-907 908 941 0
-906 907 0
-905 906 0
-904 905 0
-903 904 0
-900 903 0
-898 907 0
-897 898 0
-891 896 0
-887 888 0
-886 887 0
-884 885 0
-883 889 0
-882 883 0
-880 881 0
-878 948 0
-874 875 944 0
-872 873 0
-871 872 0
-870 871 0
-865 866 0
-860 861 0
-858 859 0
-856 857 0
-965 966 0
54 854 0
-852 856 0
-851 852 0
-963 964 0
-847 848 0
-844 846 0
-842 843 0
-839 840 0
-838 839 0
-833 834 0
-832 833 0
-950 951 0
-827 831 0
-825 826 0
-822 823 0
-819 820 0
-817 818 0
-816 817 0
-811 813 0
-10 809 0
-807 808 0
-804 805 0
216 798 853 931 939 0
128 798 870 931 939 0
106 798 870 931 939 0
-826 833 922 0
-87 798 870 931 939 0
-801 802 0
55 798 870 931 939 0
22 798 860 931 939 0
-796 797 0
-792 793 0
-786 787 0
-784 785 0
-782 783 0
-780 781 0
-778 779 0
-777 778 0
-2 798 853 931 939 0
-774 775 0
-773 779 0
-771 772 776 0
-770 771 0
-834 849 0
-766 767 0
-765 766 0
-763 764 0
-760 761 0
-759 760 0
-754 755 0
-753 788 0
-752 753 0
-845 846 0
-751 752 0
-828 829 0
-747 748 0
-746 747 0
-745 748 0
-743 744 0
-741 742 850 0
-740 742 850 941 0
-739 740 0
-738 739 0
-737 740 0
-735 736 0
-733 735 0
-732 733 0
-730 731 0
-729 731 0
-815 818 0
-728 729 0
-727 733 0
-726 727 0
-725 751 0
-723 724 0
-922 924 0
-722 724 908 0
-721 722 0
-720 721 0
-719 720 0
-717 719 738 0
-919 920 0
-716 717 0
-715 716 0
-714 715 0
-915 916 0
-709 711 0
-708 709 0
-853 856 0
-707 709 0
-704 705 0
-703 704 0
-702 703 0
-901 902 0
-701 703 0
-700 705 0
-699 700 0
-698 699 0
-895 896 0
-188 807 0
-696 697 0
-695 696 0
-694 697 0
-690 693 0
-875 876 0
-793 794 0
-687 688 0
-234 685 0
231 684 789 853 931 939 0
192 684 789 853 931 939 0
168 684 789 853 931 939 0
-948 950 0
148 684 790 814 822 892 899 910 0
101 684 789 853 931 939 0
-51 684 789 865 931 939 0
-36 684 789 853 931 939 0
23 684 789 853 931 939 0
-683 687 792 933 0
-681 682 0
-242 680 0
-679 683 0
-677 687 0
-672 673 0
-859 861 0
-671 673 0
-669 670 0
-667 668 0
-665 666 0
-775 777 0
-664 665 0
-663 664 0
-661 662 0
-660 661 0
-658 667 0
-657 658 0
-656 657 0
-655 656 0
-654 655 0
-653 656 0
-652 657 0
-651 652 0
-650 651 730 0
-649 650 0
-648 650 0
-647 648 0
-646 652 0
-645 646 0
-644 670 0
-643 644 0
-930 933 0
-642 643 647 665 728 742 765 774 0
-640 677 0
-154 640 725 764 819 828 845 880 885 917 0
-636 637 0
-635 636 0
-75 798 870 931 939 0
-634 635 702 820 847 905 0
-632 637 0
-44 632 674 698 832 837 931 939 0
-631 632 0
-134 630 674 700 832 836 931 939 0
-629 631 910 0
-814 815 0
-628 629 0
-812 813 0
-627 628 0
-626 627 695 884 0
-625 629 0
-71 625 634 671 694 745 881 0
-916 917 0
-810 811 0
-624 625 0
70 684 789 853 931 939 0
-623 624 0
-622 623 627 635 672 814 0
-619 620 0
-618 624 0
-617 618 671 0
-614 615 0
-613 614 668 760 780 0
-612 614 812 0
-611 612 0
-610 611 0
-697 699 912 0
-609 610 919 0
-608 612 0
-706 707 0
-607 616 0
-606 607 0
-206 606 608 641 648 660 723 728 741 754 757 775 810 909 939 0
-605 606 643 754 766 0
-603 604 0
-855 856 0
-602 603 0
58 599 602 721 739 0
-977 978 0
-598 599 0
-931 933 0
-597 598 0
88 597 602 716 0
-105 596 0
-889 890 904 0
-595 600 0
-594 595 0
-593 594 706 0
89 593 598 602 718 743 851 939 0
-591 606 608 643 810 850 908 918 941 0
30 588 609 666 758 770 915 0
57 630 674 698 832 836 931 939 0
-587 591 0
-830 831 0
-755 762 0
-214 581 0
-577 578 0
214 577 962 0
-576 577 0
-789 792 0
174 575 972 0
-768 769 0
-574 575 0
-573 574 0
-572 573 0
-840 842 0
-571 572 0
-570 571 0
-569 570 0
-757 759 0
-935 936 0
141 566 0
-841 842 0
-564 565 0
-562 564 0
-561 562 0
-557 558 0
-555 556 0
-554 556 0
-552 553 0
-551 552 0
-734 735 0
-550 552 0
-548 550 0
20 863 0
-547 548 0
-544 545 0
-543 544 0
-541 542 0
-540 542 0
-538 540 0
-536 537 0
-535 537 0
-530 532 0
-528 530 0
-527 528 0
-525 526 0
-524 525 0
-523 524 0
-522 524 0
-517 519 0
-515 516 0
-512 513 0
-511 512 0
-138 511 0
-510 514 0
121 684 789 853 931 939 0
-508 509 0
-506 519 0
-688 797 0
-504 505 0
-113 798 870 931 939 0
-500 501 0
-116 689 0
-499 501 0
-864 866 0
-496 497 0
-495 497 0
-494 497 0
213 493 516 798 870 931 939 0
-492 493 0
-491 492 515 0
-596 598 603 720 738 0
37 491 798 870 931 939 0
-818 820 842 0
-143 488 585 806 879 938 0
-483 576 0
-57 381 423 541 633 701 819 838 0
36 381 423 522 0
-927 928 0
187 373 407 503 684 789 853 931 939 0
-281 380 0
-843 844 0
-509 517 0
132 278 325 353 518 0
-641 643 766 0
-380 388 0
-378 379 0
-377 378 0
147 379 413 520 0
-376 378 0
-514 515 0
-395 396 0
-375 376 0
-152 253 485 580 0
-854 855 940 0
186 373 407 503 798 870 931 939 0
-659 663 0
-1 275 870 939 0
-678 679 0
-52 646 659 727 773 923 0
-497 498 0
-588 589 754 756 765 768 774 0
-418 419 0
-372 374 408 504 0
-315 317 0
150 266 329 399 403 495 499 0
-803 804 936 0
-382 387 424 523 619 691 695 702 746 816 0
84 371 0
-370 371 0
-55 381 423 522 0
-266 280 0
166 367 370 0
-341 342 0
-912 913 0
-621 622 0
198 365 0
-106 381 423 522 0
-139 618 626 674 690 834 882 886 922 0
-909 930 0
77 684 789 865 931 939 0
-450 452 0
-633 635 0
-356 357 0
-355 356 0
-354 363 408 0
-352 353 0
-173 257 0
-351 352 508 0
164 373 409 505 684 789 853 931 939 0
-615 616 0
-337 338 0
-72 381 423 522 0
-813 820 0
-349 352 504 0
-347 348 0
-346 349 0
-171 266 329 399 403 495 499 0
-674 675 749 783 0
78 445 539 798 870 931 939 0
93 360 0
-186 266 329 399 403 495 499 0
-345 354 0
-744 749 0
-374 375 0
50 386 621 0
-338 339 0
-783 784 0
-46 266 330 399 495 587 653 753 0
-532 533 0
-335 339 0
-668 669 0
-164 266 329 399 406 495 502 0
-545 547 0
71 381 423 531 628 634 672 696 747 890 0
-333 376 0
-132 278 324 345 684 789 853 931 939 0
46 330 373 407 503 590 609 655 664 787 915 0
130 327 342 351 513 0
246 322 0
-250 267 798 860 931 939 0
-316 317 0
-371 372 0
-736 744 0
-144 684 789 853 931 939 0
-368 369 0
250 267 287 334 346 0
-313 314 0
-954 955 0
220 311 0
-128 381 423 522 0
-969 970 0
-308 309 0
-592 594 0
171 373 407 503 684 789 853 931 939 0
-639 640 0
-307 313 374 408 504 0
-932 933 0
-305 306 0
-767 782 0
-309 312 0
-220 266 309 315 399 495 684 789 870 931 939 0
-37 381 423 490 491 507 0
-314 319 0
-941 942 0
-99 266 329 399 403 495 499 798 870 931 939 0
-246 266 320 322 325 340 350 399 495 518 798 853 931 939 0
-362 363 0
-713 717 0
-70 381 423 522 0
-263 265 0
-469 470 0
-505 506 0
249 266 318 399 495 684 789 853 931 939 0
-836 837 0
-131 266 399 495 684 789 874 931 0
-317 318 0
-280 281 0
224 266 329 362 423 522 0
154 266 377 423 522 676 750 784 827 828 882 886 925 0
-249 314 373 407 503 0
-310 311 0
-361 363 0
115 266 329 399 403 495 499 798 853 931 939 0
-970 971 0
179 336 0
-133 277 377 411 518 798 870 931 939 0
-379 380 0
-421 422 0
185 471 560 947 0
-861 862 0
-685 686 791 857 932 940 0
45 272 0
-84 266 329 369 399 403 495 499 798 870 931 939 0
-343 344 0
-348 349 0
-202 255 486 584 0
-35 266 283 286 293 296 315 399 495 798 870 931 939 0
-542 543 0
-267 279 282 285 301 316 337 347 400 496 0
-353 354 0
-589 590 0
-502 506 0
-58 381 423 522 595 613 712 734 737 819 927 0
169 276 0
-77 381 423 522 0
-913 914 0
-456 458 0
126 266 306 315 399 495 684 789 853 931 939 0
-575 576 0
-447 448 0
-422 425 524 0
-364 366 0
-888 889 0
-850 851 0
1 275 310 681 0
-319 332 405 501 0
-837 840 0
59 264 421 0
133 277 0
-284 291 0
-724 725 0
-921 922 0
-270 279 305 316 400 496 686 791 855 932 940 0
-367 368 0
-182 460 548 805 937 0
-11 688 815 823 892 900 911 0
-339 344 0
-125 381 423 522 0
-748 749 783 824 0
-330 331 404 500 0
-260 262 285 295 305 308 323 337 341 347 368 415 492 512 589 619 647 654 661 691 695 706 715 746 756 768 774 816 829 884 893 901 0
206 266 377 423 522 611 645 649 659 660 726 758 772 776 929 0
-19 373 407 503 684 789 853 931 939 0
238 269 0
-329 332 0
-448 449 0
-236 254 484 579 0
-779 780 0
-286 289 0
-966 967 0
-973 974 0
-507 508 0
35 288 297 373 407 503 0
-304 307 0
-121 381 423 522 0
108 266 329 355 358 423 522 0
-268 279 282 285 293 295 316 400 496 0
-802 804 0
-311 312 0
-216 381 423 541 0
-392 393 0
-59 263 419 798 870 931 939 0
-271 279 331 0
42 375 407 503 798 870 931 939 0
-797 800 0
176 682 0
-414 425 0
-805 877 0
-790 791 816 824 893 901 912 0
52 381 423 522 638 641 651 662 723 732 741 778 819 908 915 923 939 0
-692 693 0
-601 605 0
-41 252 0
-350 352 0
-363 364 0
-170 256 487 583 0
-273 279 316 400 496 0
-283 284 0
-630 631 0
-452 453 0
127 474 563 960 0
-321 328 0
2 381 423 555 0
-911 914 0
-718 719 0
105 381 423 522 592 596 613 710 734 819 927 0
-306 307 0
-130 266 321 340 351 399 495 510 684 789 853 931 939 0
-586 587 752 0
-417 418 0
-43 266 377 423 522 642 645 649 726 769 827 883 918 0
-187 266 329 399 403 495 499 0
-434 436 0
-929 930 0
-357 361 0
-369 372 0
-849 850 0
99 373 407 503 0
-192 381 423 522 0
-917 926 0
-278 279 320 400 496 0
-336 337 589 610 654 664 786 916 919 0
-238 269 370 0
-437 439 0
131 377 411 518 0
19 266 329 399 403 495 499 0
29 958 0
-899 900 0
-189 798 853 931 939 0
-328 332 405 0
-300 301 0
-565 567 0
-91 268 798 870 931 939 0
-750 751 0
-150 373 407 503 684 789 853 931 939 0
-331 332 0
-756 757 0
-275 279 308 316 400 496 678 0
91 268 287 297 373 407 503 0
-297 298 0
-240 270 304 0
-866 867 0
-169 276 684 789 853 931 939 0
-293 294 0
-787 788 0
240 270 0
-462 464 0
43 638 642 723 770 819 830 845 880 888 915 920 0
-17 258 398 489 798 870 931 939 0
-288 289 0
-558 559 0
-8 271 0
-513 514 0
-435 436 0
8 271 373 428 522 798 870 931 939 0
-800 801 0
-467 468 0
-373 374 0
-303 313 0
-862 864 0
-45 272 373 407 503 684 789 853 931 939 0
-272 279 331 400 404 496 500 0
-785 786 0
-48 273 292 335 346 684 789 865 931 939 0
-342 343 0
-662 663 0
-160 274 310 684 789 865 931 939 0
-229 373 407 503 953 0
160 274 0
-424 425 0
-521 524 0
-439 440 0
-22 381 423 522 0
-276 279 331 363 424 523 0
-925 926 0
-358 359 0
-277 279 400 496 0
-54 435 541 798 854 931 0
75 266 329 362 423 522 0
-676 677 0
-168 395 428 541 0
-179 266 329 334 336 350 399 403 495 518 586 653 0
-556 557 0
-279 280 0
-274 279 308 316 400 496 0
-914 916 0
-269 279 331 368 400 404 496 500 799 861 932 940 0
11 381 423 541 796 817 825 894 902 913 0
-857 858 0
-287 288 0
-453 455 0
-896 897 0
-327 328 0
-908 909 0
-112 798 870 931 939 0
-299 300 0
-798 800 0
-289 290 0
9 290 299 373 407 503 684 789 853 931 939 0
-465 466 0
-902 903 0
-440 442 0
-394 396 0
-482 483 0
-290 291 0
-302 303 0
-881 891 0
-320 321 0
-261 262 0
48 273 302 338 348 0
-296 298 0
-291 292 0
-292 303 0
-890 891 0
-391 392 0
-322 323 341 0
-892 895 0
-325 326 0
-385 387 415 0
-64 259 0
-323 324 0
-910 911 0
-711 712 0
-28 382 621 898 0
41 977 0
-894 895 0
-498 521 0
-326 327 0
-386 387 424 523 699 702 749 783 816 824 897 901 912 0
-867 869 0
-295 296 0
-519 520 0
-42 266 333 399 403 495 499 0
-893 894 0
-600 601 0
-384 387 424 496 500 504 0
-324 326 0
-110 261 416 0
-712 722 0
-298 299 0
-301 302 0
229 266 329 399 403 495 499 0
-516 517 0
-126 304 0
-553 554 0
-820 821 0
87 381 423 522 0
-961 962 0
-762 763 0
-604 605 0
-962 963 0
-332 333 0
-30 381 423 522 586 588 658 0
189 381 423 541 0
-620 622 0
28 382 617 690 745 906 0
-388 389 0
-100 381 423 522 601 613 710 713 714 734 819 927 0
-943 944 0
-101 381 423 522 0
-334 335 0
-666 667 0
-533 535 0
-195 383 0
-616 639 0
195 383 0
-531 532 0
-673 675 822 0
-788 792 0
112 381 423 522 0
-459 460 0
-590 591 0
-119 381 423 522 0
211 457 949 0
-318 319 0
215 441 529 0
134 381 423 541 633 704 819 838 0
-731 732 0
-637 639 0
-366 374 0
-742 743 0
144 381 428 531 0
-824 825 0
-559 561 0
-148 381 423 522 790 0
-478 479 0
-430 431 0
-285 286 0
-400 401 0
-791 792 0
-503 504 0
-403 405 0
-829 830 0
-88 391 423 522 592 597 613 710 713 734 819 927 0
-89 463 522 593 613 708 736 821 927 0
-31 607 644 707 718 729 741 755 767 811 939 0
-769 771 0
-200 381 423 522 0
-968 969 0
-213 381 423 490 509 0
-885 887 0
-429 430 0
-472 473 0
225 381 423 522 0
-848 849 0
-776 777 0
-231 381 423 522 0
-294 300 0
-282 283 0
234 381 423 522 685 0
-944 945 0
-799 800 0
-399 401 0
-686 687 0
-312 313 356 408 504 0
-463 464 0
242 381 423 522 678 680 870 939 0
-876 877 0
-795 796 0
-957 959 0
-758 759 0
-381 388 0
-145 384 0
-823 826 0
145 384 684 789 853 931 939 0
-794 795 0
-684 687 0
-410 412 0
-451 452 0
-140 385 0
140 385 417 420 798 870 931 939 0
-490 494 0
-50 386 617 620 899 0
-387 388 0
-691 692 0
-397 431 0
-749 750 0
-473 475 0
125 798 870 931 939 0
-432 434 0
-389 390 0
-477 478 0
44 391 423 522 636 701 819 839 0
191 381 423 522 0
-443 444 0
113 391 423 522 0
-933 934 0
139 391 423 522 623 626 633 692 701 819 848 880 0
-675 676 0
-411 412 0
-340 343 0
-781 782 0
17 393 426 525 0
-481 482 0
-393 394 0
-520 521 0
-436 437 0
-390 392 0
-479 480 0
-764 785 0
-108 358 684 789 853 931 939 0
-537 538 0
-939 941 0
-9 266 284 294 315 399 495 0
-831 833 0
-693 694 0
-670 675 0
-568 569 0
-396 397 0
-480 481 0
-821 852 0
-161 397 0
-428 429 0
-401 402 0
-877 878 0
-115 373 407 503 0
-402 414 0
-404 405 0
-405 406 0
-493 494 0
-873 875 0
-518 519 0
51 381 423 522 0
-406 410 0
-407 408 0
-682 683 0
-408 409 0
-599 600 0
-243 835 0
-409 410 0
-412 413 0
-413 414 0
-415 416 0
119 798 860 931 939 0
-419 422 0
-420 421 0
-960 961 0
-761 762 0
-225 684 789 853 931 939 0
-423 425 0
-425 426 0
-147 281 402 498 798 853 931 939 0
-264 265 0
-470 472 0
-427 429 0
-265 280 332 363 0
-431 432 0
-475 477 0
118 433 534 0
-638 639 763 0
-501 502 0
-416 418 0
56 438 0
-442 443 0
-869 871 0
-680 681 0
-23 443 536 0
-942 943 0
-78 444 538 0
-444 446 0
-446 448 0
-344 345 0
-526 527 0
-710 711 737 0
-449 450 0
-959 960 0
-224 684 789 853 931 939 0
117 454 546 868 0
-455 456 0
-458 459 0
-846 847 0
157 459 541 803 870 939 0
-918 921 0
200 684 789 865 931 939 0
-460 462 0
-426 427 0
182 461 549 876 945 0
-191 798 865 931 939 0
31 463 522 615 669 708 726 730 761 781 812 927 0
72 684 789 853 931 939 0
-464 465 0
-466 467 0
-262 263 0
-468 469 0
-705 724 763 0
-772 773 0
100 604 714 0
-476 477 0
-567 569 0
